Solver command line: ['C:\\Program Files\\IBM\\ILOG\\CPLEX_Studio2211\\cplex\\bin\\x64_win64\\cplex.exe']


Welcome to IBM(R) ILOG(R) CPLEX(R) Interactive Optimizer 22.1.1.0
  with Simplex, Mixed Integer & Barrier Optimizers
5725-A06 5725-A29 5724-Y48 5724-Y49 5724-Y54 5724-Y55 5655-Y21
Copyright IBM Corp. 1988, 2022.  All Rights Reserved.

Type 'help' for a list of available commands.
Type 'help' followed by a command name for more
information on commands.

CPLEX> Logfile 'cplex.log' closed.
Logfile 'C:\Users\wangy\Documents\GitHub\re_optimization\result_site_specific\tmpul40eotj.cplex.log' open.
CPLEX> Problem 'C:\Users\wangy\Documents\GitHub\re_optimization\result_site_specific\tmppogug8ym.pyomo.lp' read.
Read time = 0.28 sec. (7.98 ticks)
CPLEX> Problem name         : C:\Users\wangy\Documents\GitHub\re_optimization\result_site_specific\tmppogug8ym.pyomo.lp
Objective sense      : Minimize
Variables            :   56997  [Nneg: 30685,  Free: 4406,  Binary: 6,
                                 Other: 21900]
Objective nonzeros   :      14
Linear constraints   :   78893  [Less: 42355,  Greater: 5,  Equal: 36533]
  Nonzeros           :  198737
  RHS nonzeros       :    3661

Variables            : Min LB: 0.000000         Max UB: 1.000000       
Objective nonzeros   : Min   : 1.000000         Max   : 1.000000       
Linear constraints   :
  Nonzeros           : Min   : 0.003704997      Max   : 100000.0       
  RHS nonzeros       : Min   : 0.04500000       Max   : 100000.0       
CPLEX> Version identifier: 22.1.1.0 | 2022-11-27 | 9160aff4d
Tried aggregator 3 times.
MIP Presolve eliminated 46281 rows and 25838 columns.
Aggregator did 10718 substitutions.
Reduced MIP has 21894 rows, 20441 columns, and 65819 nonzeros.
Reduced MIP has 2 binaries, 0 generals, 0 SOSs, and 0 indicators.
Presolve time = 0.22 sec. (207.48 ticks)
Found incumbent of value 206046.953942 after 0.33 sec. (315.03 ticks)
Probing time = 0.02 sec. (1.13 ticks)
Tried aggregator 1 time.
Detecting symmetries...
Reduced MIP has 21894 rows, 20441 columns, and 65819 nonzeros.
Reduced MIP has 2 binaries, 0 generals, 0 SOSs, and 0 indicators.
Presolve time = 0.03 sec. (42.61 ticks)
Probing time = 0.01 sec. (1.07 ticks)
MIP emphasis: balance optimality and feasibility.
MIP search method: dynamic search.
Parallel mode: deterministic, using up to 16 threads.
Root relaxation solution time = 1.03 sec. (762.02 ticks)

        Nodes                                         Cuts/
   Node  Left     Objective  IInf  Best Integer    Best Bound    ItCnt     Gap

*     0+    0                       206046.9539    -5060.0564           102.46%
      0     0     3176.8067     1   206046.9539     3176.8067       66   98.46%
*     0+    0                         4781.5582     3176.8067            33.56%
*     0+    0                         3519.7001     3176.8067             9.74%
      0     0        cutoff           3519.7001                    414    0.00%
Elapsed time = 1.77 sec. (1537.80 ticks, tree = 0.01 MB, solutions = 3)

Root node processing (before b&c):
  Real time             =    1.78 sec. (1540.57 ticks)
Parallel b&c, 16 threads:
  Real time             =    0.00 sec. (0.00 ticks)
  Sync time (average)   =    0.00 sec.
  Wait time (average)   =    0.00 sec.
                          ------------
Total (root+branch&cut) =    1.78 sec. (1540.57 ticks)

Solution pool: 3 solutions saved.

MIP - Integer optimal solution:  Objective =  3.5197001174e+03
Solution time =    1.78 sec.  Iterations = 414  Nodes = 0
Deterministic time = 1540.74 ticks  (865.10 ticks/sec)

CPLEX> Incumbent solution written to file 'C:\Users\wangy\Documents\GitHub\re_optimization\result_site_specific\tmp4i7sq86o.cplex.sol'.
CPLEX> 
